NAME /Users/henri/Research/solvers/instances/idol-instances/robust/collection/cbp_Subramanyam_et_al_2020/CapBud_N15_7/models/uncertain_technology_matrix/
ROWS
 N  OBJ
 L  capacity
 L  c_1485
 L  c_1486
 L  c_1487
 L  c_1488
 L  c_1489
 L  c_1490
 L  c_1491
 L  c_1492
 L  c_1493
 L  c_1494
 L  c_1495
 L  c_1496
 L  c_1497
 L  c_1498
 L  c_1499
COLUMNS
    MARKER    'MARKER'                 'INTORG'
    x_0        OBJ        8.04525
    x_0        c_1485     1
    x_0        capacity   1.60905
    x_1        OBJ        0.267221
    x_1        c_1486     1
    x_1        capacity   0.0534443
    x_2        OBJ        0.407101
    x_2        c_1487     1
    x_2        capacity   0.0814201
    x_3        OBJ        1.88702
    x_3        c_1488     1
    x_3        capacity   0.377403
    x_4        OBJ        8.63037
    x_4        c_1489     1
    x_4        capacity   1.72607
    x_5        OBJ        1.94565
    x_5        c_1490     1
    x_5        capacity   0.38913
    x_6        OBJ        9.21724
    x_6        c_1491     1
    x_6        capacity   1.84345
    x_7        OBJ        5.10864
    x_7        c_1492     1
    x_7        capacity   1.02173
    x_8        OBJ        2.87252
    x_8        c_1493     1
    x_8        capacity   0.574505
    x_9        OBJ        1.25037
    x_9        c_1494     1
    x_9        capacity   0.250074
    x_10       OBJ        5.79952
    x_10       c_1495     1
    x_10       capacity   1.1599
    x_11       OBJ        8.96532
    x_11       c_1496     1
    x_11       capacity   1.79306
    x_12       OBJ        6.20363
    x_12       c_1497     1
    x_12       capacity   1.24073
    x_13       OBJ        4.34306
    x_13       c_1498     1
    x_13       capacity   0.868613
    x_14       OBJ        6.25009
    x_14       c_1499     1
    x_14       capacity   1.25002
    y_0        OBJ        6.4362
    y_0        c_1485     1
    y_0        capacity   1.60905
    y_1        OBJ        0.213777
    y_1        c_1486     1
    y_1        capacity   0.0534443
    y_2        OBJ        0.325681
    y_2        c_1487     1
    y_2        capacity   0.0814201
    y_3        OBJ        1.50961
    y_3        c_1488     1
    y_3        capacity   0.377403
    y_4        OBJ        6.90429
    y_4        c_1489     1
    y_4        capacity   1.72607
    y_5        OBJ        1.55652
    y_5        c_1490     1
    y_5        capacity   0.38913
    y_6        OBJ        7.37379
    y_6        c_1491     1
    y_6        capacity   1.84345
    y_7        OBJ        4.08692
    y_7        c_1492     1
    y_7        capacity   1.02173
    y_8        OBJ        2.29802
    y_8        c_1493     1
    y_8        capacity   0.574505
    y_9        OBJ        1.00029
    y_9        c_1494     1
    y_9        capacity   0.250074
    y_10       OBJ        4.63962
    y_10       c_1495     1
    y_10       capacity   1.1599
    y_11       OBJ        7.17226
    y_11       c_1496     1
    y_11       capacity   1.79306
    y_12       OBJ        4.9629
    y_12       c_1497     1
    y_12       capacity   1.24073
    y_13       OBJ        3.47445
    y_13       c_1498     1
    y_13       capacity   0.868613
    y_14       OBJ        5.00007
    y_14       c_1499     1
    y_14       capacity   1.25002
    MARKER    'MARKER'                 'INTEND'
RHS
    RHS       capacity   35.5965
    RHS       c_1485     1
    RHS       c_1486     1
    RHS       c_1487     1
    RHS       c_1488     1
    RHS       c_1489     1
    RHS       c_1490     1
    RHS       c_1491     1
    RHS       c_1492     1
    RHS       c_1493     1
    RHS       c_1494     1
    RHS       c_1495     1
    RHS       c_1496     1
    RHS       c_1497     1
    RHS       c_1498     1
    RHS       c_1499     1
BOUNDS
 LI BND       x_0        0
 UI BND       x_0        1
 LI BND       x_1        0
 UI BND       x_1        1
 LI BND       x_2        0
 UI BND       x_2        1
 LI BND       x_3        0
 UI BND       x_3        1
 LI BND       x_4        0
 UI BND       x_4        1
 LI BND       x_5        0
 UI BND       x_5        1
 LI BND       x_6        0
 UI BND       x_6        1
 LI BND       x_7        0
 UI BND       x_7        1
 LI BND       x_8        0
 UI BND       x_8        1
 LI BND       x_9        0
 UI BND       x_9        1
 LI BND       x_10       0
 UI BND       x_10       1
 LI BND       x_11       0
 UI BND       x_11       1
 LI BND       x_12       0
 UI BND       x_12       1
 LI BND       x_13       0
 UI BND       x_13       1
 LI BND       x_14       0
 UI BND       x_14       1
 LI BND       y_0        0
 UI BND       y_0        1
 LI BND       y_1        0
 UI BND       y_1        1
 LI BND       y_2        0
 UI BND       y_2        1
 LI BND       y_3        0
 UI BND       y_3        1
 LI BND       y_4        0
 UI BND       y_4        1
 LI BND       y_5        0
 UI BND       y_5        1
 LI BND       y_6        0
 UI BND       y_6        1
 LI BND       y_7        0
 UI BND       y_7        1
 LI BND       y_8        0
 UI BND       y_8        1
 LI BND       y_9        0
 UI BND       y_9        1
 LI BND       y_10       0
 UI BND       y_10       1
 LI BND       y_11       0
 UI BND       y_11       1
 LI BND       y_12       0
 UI BND       y_12       1
 LI BND       y_13       0
 UI BND       y_13       1
 LI BND       y_14       0
 UI BND       y_14       1
ENDATA
